
  22   10
  10   10   10   10   10   10   10   10   10   10

   0   0   0   0   0   0   0   0   0   0   0   7 2 3 5 9 11 12 21 
   4   0   0   0   0   0   0  10   0   0   0   3 14 7 4 
   3   0   0  10   0   0   0   0   0   0   0   3 14 10 8 
   9   0  10   0   0   0   0   0   0   0   0   2 20 6 
   4   0   0  10   0   0   0   0   0   0   0   2 14 6 
   4   0   0   0   0   0   0   0   0  10   0   3 19 17 8 
   9   0   0   0   0   0   0  10   0   0   0   2 18 8 
   4   0  10   0   0   0   0   0   0   0   0   2 16 13 
  10   0   0  10   0   0   0   0   0   0   0   2 16 13 
   7   0   0   0   0   0  10   0   0   0   0   2 18 17 
   7   0   0   0   0   0   0   0   0   0  10   2 18 15 
   4   0   0   0   0   0   0   0   0  10   0   2 16 15 
   4  10   0   0   0   0   0   0   0   0   0   1 15 
  10   0   0   0   0   0   0  10   0   0   0   1 16 
   2   0   0   0   0   0  10   0   0   0   0   1 22
   3   0   0   0   0   0   0  10   0   0   0   1 22
   6   0   0   0   0   0   0  10   0   0   0   1 22
   6   0   0   0   0   0   0   0   0  10   0   1 22
   2   0  10   0   0   0   0   0   0   0   0   1 22
   9   0   0   0   0   0   0   0  10   0   0   1 22
   4   0   0   0   0   0   0   0  10   0   0   1 22
   0   0   0   0   0   0   0   0   0   0   0   0 
